c Created with the Wolfram Language : www.wolfram.com
c 
p edge 100 985
e 1 4
e 3 4
e 1 5
e 4 6
e 5 7
e 1 8
e 6 8
e 1 10
e 4 10
e 6 10
e 3 11
e 10 11
e 3 12
e 5 13
e 8 13
e 11 13
e 3 14
e 8 14
e 4 15
e 5 15
e 6 15
e 7 15
e 4 16
e 7 16
e 3 17
e 7 17
e 13 17
e 14 17
e 12 18
e 16 18
e 1 19
e 4 19
e 6 19
e 15 19
e 11 20
e 2 21
e 3 21
e 12 21
e 14 21
e 19 21
e 1 22
e 9 22
e 13 22
e 21 22
e 9 23
e 10 23
e 13 23
e 18 23
e 2 24
e 16 24
e 6 25
e 1 26
e 2 26
e 9 26
e 17 26
e 21 26
e 22 26
e 23 26
e 24 26
e 3 27
e 5 27
e 11 27
e 13 27
e 8 28
e 9 28
e 10 28
e 14 28
e 19 28
e 23 28
e 25 28
e 2 29
e 3 29
e 11 29
e 19 29
e 24 29
e 25 29
e 26 29
e 1 30
e 3 30
e 8 30
e 19 30
e 2 31
e 18 31
e 25 31
e 28 31
e 9 32
e 11 32
e 25 32
e 27 32
e 30 32
e 2 33
e 14 33
e 15 33
e 16 33
e 19 33
e 23 33
e 29 33
e 32 33
e 3 34
e 4 34
e 5 34
e 9 34
e 12 34
e 13 34
e 21 34
e 30 34
e 10 35
e 17 35
e 18 35
e 19 35
e 25 35
e 27 35
e 29 35
e 33 35
e 34 35
e 2 36
e 7 36
e 12 36
e 13 36
e 14 36
e 19 36
e 20 36
e 21 36
e 25 36
e 29 36
e 30 36
e 31 36
e 6 37
e 19 37
e 23 37
e 27 37
e 28 37
e 31 37
e 32 37
e 2 38
e 3 38
e 14 38
e 15 38
e 20 38
e 29 38
e 33 38
e 37 38
e 4 39
e 34 39
e 37 39
e 38 39
e 3 40
e 5 40
e 12 40
e 13 40
e 31 40
e 33 40
e 34 40
e 35 40
e 2 41
e 5 41
e 6 41
e 7 41
e 18 41
e 20 41
e 23 41
e 29 41
e 32 41
e 37 41
e 5 42
e 7 42
e 17 42
e 18 42
e 27 42
e 32 42
e 33 42
e 34 42
e 37 42
e 40 42
e 4 43
e 19 43
e 24 43
e 39 43
e 7 44
e 8 44
e 11 44
e 13 44
e 15 44
e 32 44
e 35 44
e 36 44
e 41 44
e 42 44
e 43 44
e 2 45
e 4 45
e 10 45
e 14 45
e 16 45
e 21 45
e 24 45
e 35 45
e 41 45
e 11 46
e 19 46
e 20 46
e 21 46
e 24 46
e 27 46
e 31 46
e 32 46
e 37 46
e 44 46
e 1 47
e 9 47
e 11 47
e 17 47
e 20 47
e 23 47
e 25 47
e 27 47
e 28 47
e 29 47
e 31 47
e 40 47
e 41 47
e 1 48
e 2 48
e 7 48
e 11 48
e 13 48
e 26 48
e 30 48
e 36 48
e 38 48
e 44 48
e 45 48
e 1 49
e 5 49
e 20 49
e 21 49
e 22 49
e 27 49
e 36 49
e 45 49
e 48 49
e 10 50
e 12 50
e 16 50
e 17 50
e 27 50
e 31 50
e 39 50
e 3 51
e 5 51
e 6 51
e 7 51
e 10 51
e 13 51
e 18 51
e 36 51
e 39 51
e 40 51
e 45 51
e 47 51
e 49 51
e 6 52
e 8 52
e 9 52
e 16 52
e 19 52
e 20 52
e 22 52
e 24 52
e 31 52
e 32 52
e 36 52
e 38 52
e 11 53
e 13 53
e 14 53
e 23 53
e 30 53
e 36 53
e 38 53
e 41 53
e 45 53
e 50 53
e 52 53
e 6 54
e 9 54
e 11 54
e 12 54
e 14 54
e 17 54
e 20 54
e 21 54
e 29 54
e 30 54
e 31 54
e 35 54
e 42 54
e 5 55
e 14 55
e 18 55
e 28 55
e 41 55
e 46 55
e 48 55
e 51 55
e 3 56
e 8 56
e 9 56
e 10 56
e 11 56
e 13 56
e 15 56
e 16 56
e 20 56
e 24 56
e 26 56
e 28 56
e 35 56
e 41 56
e 42 56
e 45 56
e 55 56
e 10 57
e 18 57
e 20 57
e 21 57
e 33 57
e 42 57
e 47 57
e 51 57
e 55 57
e 4 58
e 5 58
e 7 58
e 14 58
e 19 58
e 20 58
e 32 58
e 36 58
e 50 58
e 55 58
e 56 58
e 1 59
e 14 59
e 24 59
e 27 59
e 30 59
e 45 59
e 53 59
e 57 59
e 4 60
e 7 60
e 10 60
e 12 60
e 18 60
e 20 60
e 23 60
e 26 60
e 32 60
e 37 60
e 40 60
e 48 60
e 49 60
e 52 60
e 54 60
e 6 61
e 12 61
e 16 61
e 37 61
e 41 61
e 48 61
e 52 61
e 58 61
e 19 62
e 27 62
e 45 62
e 48 62
e 49 62
e 57 62
e 61 62
e 4 63
e 6 63
e 17 63
e 28 63
e 32 63
e 34 63
e 41 63
e 43 63
e 44 63
e 53 63
e 57 63
e 62 63
e 5 64
e 11 64
e 17 64
e 18 64
e 36 64
e 43 64
e 44 64
e 46 64
e 47 64
e 53 64
e 55 64
e 58 64
e 59 64
e 1 65
e 9 65
e 10 65
e 15 65
e 22 65
e 34 65
e 42 65
e 45 65
e 47 65
e 49 65
e 60 65
e 62 65
e 63 65
e 64 65
e 1 66
e 5 66
e 13 66
e 14 66
e 16 66
e 25 66
e 28 66
e 32 66
e 33 66
e 37 66
e 46 66
e 48 66
e 49 66
e 58 66
e 5 67
e 7 67
e 14 67
e 16 67
e 19 67
e 30 67
e 34 67
e 48 67
e 49 67
e 58 67
e 62 67
e 4 68
e 6 68
e 15 68
e 19 68
e 20 68
e 26 68
e 27 68
e 43 68
e 45 68
e 52 68
e 53 68
e 54 68
e 59 68
e 62 68
e 64 68
e 65 68
e 1 69
e 6 69
e 9 69
e 10 69
e 13 69
e 26 69
e 29 69
e 33 69
e 35 69
e 44 69
e 45 69
e 47 69
e 49 69
e 56 69
e 63 69
e 65 69
e 1 70
e 2 70
e 26 70
e 28 70
e 31 70
e 37 70
e 53 70
e 58 70
e 59 70
e 68 70
e 3 71
e 8 71
e 10 71
e 19 71
e 42 71
e 48 71
e 57 71
e 58 71
e 60 71
e 68 71
e 70 71
e 14 72
e 21 72
e 22 72
e 23 72
e 24 72
e 25 72
e 28 72
e 29 72
e 34 72
e 35 72
e 46 72
e 49 72
e 53 72
e 56 72
e 58 72
e 60 72
e 61 72
e 62 72
e 69 72
e 10 73
e 11 73
e 12 73
e 20 73
e 22 73
e 26 73
e 32 73
e 36 73
e 38 73
e 41 73
e 47 73
e 48 73
e 64 73
e 11 74
e 12 74
e 13 74
e 25 74
e 29 74
e 31 74
e 38 74
e 44 74
e 46 74
e 47 74
e 48 74
e 51 74
e 61 74
e 14 75
e 15 75
e 26 75
e 27 75
e 33 75
e 34 75
e 35 75
e 41 75
e 42 75
e 49 75
e 50 75
e 55 75
e 59 75
e 70 75
e 74 75
e 9 76
e 11 76
e 12 76
e 23 76
e 26 76
e 34 76
e 39 76
e 44 76
e 46 76
e 53 76
e 56 76
e 73 76
e 3 77
e 5 77
e 6 77
e 9 77
e 14 77
e 27 77
e 29 77
e 32 77
e 52 77
e 56 77
e 57 77
e 59 77
e 61 77
e 66 77
e 67 77
e 72 77
e 9 78
e 20 78
e 23 78
e 26 78
e 28 78
e 36 78
e 43 78
e 44 78
e 47 78
e 48 78
e 64 78
e 67 78
e 68 78
e 71 78
e 73 78
e 4 79
e 14 79
e 19 79
e 20 79
e 23 79
e 25 79
e 35 79
e 54 79
e 68 79
e 74 79
e 4 80
e 9 80
e 19 80
e 20 80
e 28 80
e 34 80
e 40 80
e 48 80
e 49 80
e 58 80
e 61 80
e 68 80
e 78 80
e 4 81
e 15 81
e 16 81
e 18 81
e 25 81
e 26 81
e 27 81
e 29 81
e 32 81
e 33 81
e 35 81
e 39 81
e 40 81
e 50 81
e 56 81
e 57 81
e 63 81
e 76 81
e 17 82
e 36 82
e 38 82
e 44 82
e 45 82
e 46 82
e 48 82
e 54 82
e 71 82
e 16 83
e 20 83
e 28 83
e 29 83
e 35 83
e 36 83
e 37 83
e 39 83
e 43 83
e 49 83
e 53 83
e 56 83
e 59 83
e 62 83
e 64 83
e 69 83
e 73 83
e 74 83
e 79 83
e 2 84
e 20 84
e 24 84
e 29 84
e 33 84
e 44 84
e 52 84
e 61 84
e 62 84
e 68 84
e 72 84
e 76 84
e 7 85
e 17 85
e 27 85
e 31 85
e 34 85
e 38 85
e 42 85
e 49 85
e 53 85
e 55 85
e 66 85
e 67 85
e 68 85
e 69 85
e 82 85
e 83 85
e 9 86
e 10 86
e 12 86
e 16 86
e 19 86
e 23 86
e 26 86
e 27 86
e 28 86
e 33 86
e 40 86
e 44 86
e 45 86
e 47 86
e 49 86
e 54 86
e 56 86
e 57 86
e 65 86
e 74 86
e 75 86
e 78 86
e 4 87
e 10 87
e 13 87
e 14 87
e 15 87
e 18 87
e 21 87
e 23 87
e 33 87
e 48 87
e 57 87
e 59 87
e 69 87
e 75 87
e 83 87
e 86 87
e 4 88
e 11 88
e 16 88
e 21 88
e 30 88
e 41 88
e 46 88
e 50 88
e 57 88
e 59 88
e 62 88
e 64 88
e 69 88
e 72 88
e 76 88
e 77 88
e 80 88
e 82 88
e 83 88
e 9 89
e 15 89
e 17 89
e 24 89
e 47 89
e 49 89
e 52 89
e 56 89
e 57 89
e 59 89
e 61 89
e 66 89
e 68 89
e 69 89
e 70 89
e 77 89
e 78 89
e 80 89
e 83 89
e 85 89
e 16 90
e 20 90
e 23 90
e 27 90
e 30 90
e 34 90
e 42 90
e 57 90
e 60 90
e 61 90
e 62 90
e 69 90
e 74 90
e 78 90
e 79 90
e 81 90
e 83 90
e 2 91
e 6 91
e 15 91
e 25 91
e 31 91
e 34 91
e 42 91
e 47 91
e 50 91
e 51 91
e 59 91
e 63 91
e 84 91
e 86 91
e 2 92
e 5 92
e 7 92
e 11 92
e 19 92
e 27 92
e 37 92
e 42 92
e 46 92
e 48 92
e 51 92
e 53 92
e 54 92
e 60 92
e 62 92
e 65 92
e 75 92
e 76 92
e 79 92
e 83 92
e 1 93
e 6 93
e 10 93
e 11 93
e 20 93
e 22 93
e 24 93
e 32 93
e 34 93
e 35 93
e 38 93
e 39 93
e 45 93
e 54 93
e 55 93
e 62 93
e 72 93
e 74 93
e 84 93
e 89 93
e 8 94
e 16 94
e 22 94
e 23 94
e 36 94
e 49 94
e 52 94
e 53 94
e 64 94
e 72 94
e 74 94
e 75 94
e 86 94
e 87 94
e 92 94
e 4 95
e 22 95
e 25 95
e 27 95
e 29 95
e 33 95
e 38 95
e 39 95
e 44 95
e 45 95
e 46 95
e 60 95
e 61 95
e 62 95
e 65 95
e 66 95
e 75 95
e 85 95
e 87 95
e 91 95
e 8 96
e 10 96
e 11 96
e 14 96
e 18 96
e 20 96
e 22 96
e 23 96
e 28 96
e 29 96
e 31 96
e 40 96
e 44 96
e 52 96
e 56 96
e 57 96
e 65 96
e 66 96
e 68 96
e 76 96
e 80 96
e 81 96
e 85 96
e 88 96
e 92 96
e 94 96
e 1 97
e 6 97
e 8 97
e 9 97
e 16 97
e 18 97
e 20 97
e 23 97
e 27 97
e 30 97
e 38 97
e 39 97
e 48 97
e 55 97
e 58 97
e 60 97
e 65 97
e 72 97
e 77 97
e 85 97
e 91 97
e 92 97
e 14 98
e 21 98
e 33 98
e 35 98
e 45 98
e 55 98
e 68 98
e 72 98
e 76 98
e 83 98
e 93 98
e 7 99
e 13 99
e 15 99
e 21 99
e 24 99
e 26 99
e 29 99
e 32 99
e 33 99
e 36 99
e 42 99
e 44 99
e 51 99
e 59 99
e 60 99
e 61 99
e 74 99
e 75 99
e 77 99
e 79 99
e 82 99
e 83 99
e 86 99
e 90 99
e 97 99
e 3 100
e 15 100
e 16 100
e 18 100
e 20 100
e 21 100
e 23 100
e 35 100
e 62 100
e 64 100
e 67 100
e 74 100
e 76 100
e 77 100
e 79 100
e 80 100
e 86 100
e 87 100
e 92 100
e 95 100
e 99 100
